sat
(
  (define-fun C1_VM5 () Int
    0)
  (define-fun C3_VM5 () Int
    0)
  (define-fun ProcProv4 () Int
    2)
  (define-fun C5_VM10 () Int
    0)
  (define-fun VM5Type () Int
    17)
  (define-fun VM6Type () Int
    15)
  (define-fun C2_VM3 () Int
    0)
  (define-fun C3_VM2 () Int
    0)
  (define-fun StorageProv6 () Int
    1000)
  (define-fun StorageProv7 () Int
    2000)
  (define-fun C1_VM9 () Int
    1)
  (define-fun StorageProv5 () Int
    2000)
  (define-fun C2_VM7 () Int
    1)
  (define-fun C2_VM9 () Int
    0)
  (define-fun PriceProv5 () Int
    128)
  (define-fun MemProv4 () Int
    3750)
  (define-fun C1_VM7 () Int
    0)
  (define-fun C5_VM8 () Int
    1)
  (define-fun ProcProv5 () Int
    2)
  (define-fun StorageProv4 () Int
    2000)
  (define-fun C4_VM4 () Int
    0)
  (define-fun PriceProv10 () Int
    379)
  (define-fun C4_VM6 () Int
    0)
  (define-fun C3_VM1 () Int
    0)
  (define-fun C1_VM8 () Int
    0)
  (define-fun MemProv2 () Int
    3750)
  (define-fun C4_VM3 () Int
    0)
  (define-fun PriceProv9 () Int
    128)
  (define-fun MemProv1 () Int
    3750)
  (define-fun C4_VM9 () Int
    0)
  (define-fun PriceProv7 () Int
    128)
  (define-fun C4_VM8 () Int
    0)
  (define-fun ProcProv2 () Int
    2)
  (define-fun VM7Type () Int
    17)
  (define-fun ProcProv8 () Int
    4)
  (define-fun PriceProv8 () Int
    379)
  (define-fun VM9Type () Int
    17)
  (define-fun C3_VM7 () Int
    0)
  (define-fun C4_VM7 () Int
    0)
  (define-fun StorageProv10 () Int
    1000)
  (define-fun C1_VM3 () Int
    1)
  (define-fun C5_VM6 () Int
    1)
  (define-fun MemProv5 () Int
    3750)
  (define-fun PriceProv4 () Int
    128)
  (define-fun C2_VM4 () Int
    0)
  (define-fun ProcProv7 () Int
    2)
  (define-fun C2_VM6 () Int
    0)
  (define-fun PriceProv3 () Int
    128)
  (define-fun StorageProv2 () Int
    2000)
  (define-fun C3_VM8 () Int
    0)
  (define-fun C2_VM10 () Int
    0)
  (define-fun MemProv3 () Int
    3750)
  (define-fun C4_VM10 () Int
    0)
  (define-fun C2_VM8 () Int
    0)
  (define-fun C1_VM10 () Int
    0)
  (define-fun C4_VM5 () Int
    0)
  (define-fun StorageProv8 () Int
    1000)
  (define-fun VM1Type () Int
    17)
  (define-fun C5_VM4 () Int
    0)
  (define-fun C1_VM1 () Int
    0)
  (define-fun PriceProv6 () Int
    379)
  (define-fun ProcProv1 () Int
    2)
  (define-fun MemProv9 () Int
    3750)
  (define-fun C3_VM3 () Int
    0)
  (define-fun C1_VM2 () Int
    1)
  (define-fun PriceProv2 () Int
    128)
  (define-fun VM8Type () Int
    15)
  (define-fun MemProv10 () Int
    30500)
  (define-fun ProcProv9 () Int
    2)
  (define-fun C3_VM10 () Int
    1)
  (define-fun C1_VM4 () Int
    1)
  (define-fun C5_VM5 () Int
    0)
  (define-fun C2_VM2 () Int
    0)
  (define-fun C4_VM1 () Int
    0)
  (define-fun C5_VM3 () Int
    0)
  (define-fun VM2Type () Int
    17)
  (define-fun C4_VM2 () Int
    0)
  (define-fun C2_VM5 () Int
    1)
  (define-fun ProcProv3 () Int
    2)
  (define-fun C3_VM9 () Int
    0)
  (define-fun ProcProv10 () Int
    4)
  (define-fun StorageProv3 () Int
    2000)
  (define-fun C3_VM4 () Int
    0)
  (define-fun VM4Type () Int
    17)
  (define-fun C5_VM2 () Int
    0)
  (define-fun C5_VM1 () Int
    0)
  (define-fun StorageProv1 () Int
    2000)
  (define-fun C3_VM6 () Int
    0)
  (define-fun C5_VM9 () Int
    0)
  (define-fun StorageProv9 () Int
    2000)
  (define-fun MemProv7 () Int
    3750)
  (define-fun PriceProv1 () Int
    128)
  (define-fun C1_VM6 () Int
    0)
  (define-fun MemProv6 () Int
    30500)
  (define-fun C2_VM1 () Int
    1)
  (define-fun VM3Type () Int
    17)
  (define-fun C5_VM7 () Int
    0)
  (define-fun ProcProv6 () Int
    4)
  (define-fun VM10Type () Int
    15)
  (define-fun MemProv8 () Int
    30500)
)
(objectives
 ( 32)
 ((+ 0
   PriceProv1
   PriceProv2
   PriceProv3
   PriceProv4
   PriceProv5
   PriceProv6
   PriceProv7
   PriceProv8
   PriceProv9
   PriceProv10) 2033)
)
(:added-eqs                   153022
 :arith-eq-adapter            35697
 :arith-bound-propagations-lp 808
 :arith-conflicts             68
 :arith-diseq                 127462
 :arith-fixed-eqs             3941
 :arith-lower                 121174
 :arith-make-feasible         28529
 :arith-max-columns           174
 :arith-max-rows              32
 :arith-upper                 156106
 :binary-propagations         483395
 :conflicts                   1890
 :decisions                   50343
 :del-clause                  30411
 :final-checks                39
 :max-memory                  44.14
 :maxsat-cores                10
 :memory                      44.14
 :minimized-lits              7833
 :mk-bool-var                 67484
 :mk-clause                   31823
 :mk-clause-binary            4795
 :num-allocs                  50801124
 :num-checks                  61
 :pb-conflicts                1045
 :pb-predicates               367
 :pb-propagations             5197
 :pb-resolves                 980
 :propagations                645281
 :restarts                    6
 :rlimit-count                5137476
 :time                        0.27
 :total-time                  0.28)
